Route #1: 37 38 22 21 9 12 46 6
Route #2: 10 27 13 47 39 30 32 2 36 23 42 34 24 5 40 14
Route #3: 48 44 43 17 8 31 11 28 25 26 19 4 15
Route #4: 18 3 45 16 50 7 35 49 20 29 33 41
Route #5: 1
Route #6: 
Route #7: 
cost 895.7376812005136
